
  17    0


   0  11 2 3 4 6 7 8 12 13 14 15 16 
   4   2 11 9 
   1   2 10 9 
   8   1 5 
   9   1 9 
   7   1 10 
  10   1 10 
   8   1 9 
  10   1 17
   3   1 17
   4   1 17
   6   1 17
   8   1 17
   4   1 17
   3   1 17
   3   1 17
   0   0 
